50
1000
392
392
391
390
390
388
386
382
381
380
380
380
375
375
375
374
373
372
370
364
360
360
359
355
346
345
343
341
332
320
317
317
314
313
311
308
307
305
303
296
294
290
283
282
280
274
273
272
269
267
